100
46	1000	200	199	198	197	194	193	192	191	190	189	188	187	186	185	184	183	182	181	180	179	178	177	175	174	173	172	171	170	169	167	165	164	163	162	161	160	159	158	157	156	155	154	153	152	151	150	3	1	2	2	2	1	1	3	2	1	2	2	1	4	3	3	3	2	1	4	1	4	1	1	2	1	3	2	3	2	2	1	4	1	1	2	1	3	1	6	3	2	1	3	2	4
47	1000	200	199	198	197	196	195	194	193	191	190	189	188	187	186	185	184	183	182	181	180	179	178	176	175	174	173	172	171	170	169	168	167	165	164	163	162	160	159	158	157	156	155	154	153	152	151	150	2	4	1	1	2	2	2	1	2	1	2	1	2	1	2	5	1	1	3	2	2	1	1	2	5	1	3	1	4	2	1	5	2	2	3	2	2	2	2	4	3	2	1	3	2	2	2
44	1000	200	199	197	196	193	192	191	190	189	188	187	185	183	182	181	180	179	178	177	176	175	174	173	171	170	169	168	167	166	165	163	162	161	160	159	158	157	156	155	154	153	152	151	150	1	2	2	2	3	2	2	2	3	1	1	3	2	1	3	3	3	1	5	2	5	4	1	3	1	2	5	1	4	2	1	2	2	3	2	2	1	3	3	1	2	3	2	1
42	1000	200	199	198	197	195	193	192	188	187	186	185	184	183	182	181	180	179	178	177	176	175	173	172	170	169	168	167	165	164	163	162	161	160	159	158	157	155	154	153	152	151	150	3	5	4	1	1	4	1	1	1	3	3	2	2	1	1	3	2	6	2	4	1	4	4	1	3	4	1	3	1	2	4	1	3	3	1	3	2	3	1	3	1	1
44	1000	200	199	198	197	196	195	194	193	192	191	190	188	187	186	185	184	183	182	181	180	178	177	176	174	173	172	171	168	167	165	164	163	162	161	160	159	158	157	156	155	154	153	151	150	5	2	2	2	1	3	2	2	4	2	4	3	2	2	1	1	1	1	3	1	3	2	2	1	1	1	3	2	1	1	1	1	3	3	3	2	3	3	2	5	3	3	5	2
48	1000	200	199	198	197	196	195	194	191	190	189	188	187	186	185	184	183	182	181	180	179	178	177	176	175	174	173	172	171	170	168	167	166	165	164	163	162	161	160	159	158	157	156	155	154	153	152	151	150	1	2	2	2	3	1	5	2	3	3	3	4	2	3	1	2	1	3	3	2	2	1	2	2	2	1	4	1	1	1	1	3	2	3	1	3	3	4	2	1	2	1	1	1	1	2	2	2
43	1000	200	199	197	196	195	194	193	192	191	190	189	188	187	186	185	184	183	182	181	180	179	177	176	175	174	171	170	169	166	165	164	163	162	161	160	159	157	155	154	153	152	151	150	1	2	2	3	4	1	2	4	4	3	1	1	2	3	3	1	5	1	3	2	1	1	2	2	4	1	2	1	2	2	3	5	2	1	2	3	3	1	3	4	3	1	3
44	1000	200	199	197	196	195	194	193	192	189	188	187	186	185	184	183	182	181	180	179	178	177	175	174	173	172	171	170	168	166	165	164	162	161	160	159	158	157	156	155	154	153	152	151	150	3	5	3	3	2	3	2	3	4	2	3	1	2	2	1	1	2	1	4	3	4	1	3	3	1	2	1	2	1	1	2	1	2	2	3	2	1	2	4	1	3	2	3	3
45	1000	200	198	197	195	194	193	192	191	190	189	188	187	186	185	184	183	182	181	180	179	178	176	175	174	173	172	171	170	169	168	167	166	165	164	163	162	161	159	158	157	156	155	152	151	150	1	2	4	7	2	1	2	1	1	3	1	3	1	2	2	1	3	2	3	2	3	1	4	3	1	1	1	2	2	4	4	3	1	1	4	2	3	2	2	2	3	1	1	4	1
41	1000	200	199	198	197	196	195	194	193	191	190	189	187	185	184	183	182	180	179	178	177	176	175	174	173	172	171	170	169	168	167	166	164	162	161	159	158	156	154	153	151	150	1	1	1	3	1	1	4	4	1	2	1	1	2	3	1	2	1	1	3	3	2	2	5	2	2	5	1	7	3	3	1	4	3	3	5	3	5	2	1	2	2
45	1000	200	199	198	197	195	194	193	192	191	190	189	188	187	186	185	184	183	181	180	179	178	177	176	174	173	172	171	170	168	167	165	164	163	162	161	160	158	157	156	155	154	153	152	151	150	2	3	2	4	3	6	2	2	1	4	2	1	1	1	1	5	3	1	2	1	2	1	5	2	3	2	3	2	2	2	1	4	1	1	1	2	1	2	2	3	1	4	3	1	2
44	1000	200	199	198	195	194	193	192	191	190	189	187	186	185	183	182	180	179	178	177	175	174	173	172	171	170	169	168	167	166	165	164	163	162	161	160	159	158	157	156	154	153	152	151	150	2	5	3	1	2	2	4	2	1	2	2	6	3	1	2	1	1	4	1	2	3	3	1	3	1	2	6	2	2	2	1	1	1	4	1	4	1	1	4	3	1	4	1	1
43	1000	199	198	197	195	194	193	192	191	190	189	188	186	185	184	182	181	180	179	178	176	175	174	173	172	171	170	169	168	167	166	165	164	163	162	161	160	159	158	157	156	155	151	150	3	2	3	1	5	2	1	2	1	2	1	1	5	2	3	1	1	4	1	3	1	3	3	1	2	3	2	1	3	3	4	4	5	1	2	2	2	1	1	2	4	3	3
44	1000	200	198	197	195	194	193	192	191	190	189	188	187	185	184	183	182	181	180	179	178	177	176	175	174	173	172	171	170	169	167	166	165	164	163	162	161	158	156	155	154	153	152	151	150	1	1	1	1	2	1	3	1	1	6	1	4	1	3	3	3	4	1	1	1	4	2	5	3	2	7	3	2	1	2	3	3	2	2	2	1	4	3	1	1	2	2	1	2
42	1000	199	198	197	194	193	191	189	188	187	186	185	184	183	182	180	178	177	175	174	173	172	171	170	169	168	167	166	165	164	163	162	161	160	158	157	156	155	154	153	152	151	150	1	4	2	3	3	2	2	2	1	1	1	1	4	2	3	2	4	2	5	3	1	1	4	2	1	3	1	1	3	2	1	2	4	3	4	3	2	2	2	2	5	3
45	1000	200	198	197	196	195	194	193	192	191	189	188	187	186	185	183	182	181	180	179	178	177	176	175	173	171	170	169	168	167	166	164	163	162	161	160	159	158	157	156	155	154	153	152	151	150	2	2	1	1	2	3	3	1	2	2	3	5	2	1	1	2	1	2	1	1	5	4	3	2	2	2	1	2	1	7	6	2	2	1	2	2	2	2	1	2	2	4	1	3	1
43	1000	200	198	197	196	194	193	192	191	190	188	187	186	185	184	182	181	179	178	177	176	175	173	172	171	170	169	168	167	166	165	164	163	162	161	159	158	157	156	155	154	153	151	150	4	2	1	3	1	2	5	2	4	2	4	2	1	2	4	1	3	2	2	5	2	2	3	4	1	2	1	3	1	2	2	4	2	2	1	1	2	3	1	2	3	2	2
42	1000	200	199	198	197	196	195	193	192	191	190	189	188	187	186	185	184	181	180	179	178	177	176	175	174	173	172	171	169	168	167	166	164	162	161	160	159	158	157	156	155	154	150	4	2	2	1	1	1	3	1	3	1	1	3	1	7	4	3	1	2	3	1	3	3	2	2	1	1	6	2	4	2	4	1	1	1	4	2	2	5	3	1	3	2
44	1000	199	198	197	196	195	194	193	192	191	190	189	188	187	186	185	184	183	182	181	179	178	177	176	175	174	172	171	170	169	168	166	165	164	163	162	161	159	157	156	155	153	152	151	150	2	2	2	6	3	1	5	1	4	2	1	1	1	3	4	1	2	3	1	1	1	4	2	1	3	4	1	1	2	5	2	3	1	3	2	3	3	2	1	1	3	1	1	4
48	1000	200	199	198	197	196	195	194	193	192	191	190	189	188	187	186	185	184	183	182	181	180	179	177	176	175	174	173	172	171	170	169	168	167	166	165	164	163	162	161	160	159	158	157	156	154	153	152	150	1	2	5	1	1	5	1	1	1	3	3	3	1	3	1	2	3	1	2	3	1	2	3	2	1	2	2	1	3	2	1	1	4	2	2	2	4	3	1	1	1	2	4	2	1	2	3	2
46	1000	200	199	198	197	196	195	194	193	192	191	190	189	188	187	185	184	183	182	181	180	179	178	177	176	174	173	172	171	170	169	168	167	166	164	163	161	160	159	158	157	155	154	153	152	151	150	2	1	3	1	2	2	3	1	1	2	4	2	3	2	1	1	1	2	3	3	4	5	2	2	1	1	2	2	2	3	1	3	1	2	2	1	3	5	1	2	2	2	4	1	4	2
46	1000	200	199	198	197	196	195	194	192	191	190	189	188	187	186	185	184	183	182	181	180	179	178	177	176	175	174	173	172	171	170	169	168	167	166	165	164	161	160	159	158	157	156	155	153	151	150	1	6	1	1	2	2	1	1	1	3	3	2	3	2	1	1	2	2	5	1	2	4	2	3	3	2	1	2	3	1	1	3	3	2	1	2	4	2	1	1	3	4	4	2	2	1
42	1000	200	199	198	196	194	193	192	191	189	188	187	185	184	183	181	180	178	177	175	174	173	172	171	170	169	168	167	166	163	162	161	160	159	158	157	156	155	154	153	152	151	150	1	1	1	3	4	3	2	3	2	6	3	6	2	2	1	1	3	3	3	2	2	4	6	2	2	3	4	1	1	1	3	2	1	1	3	1	1	1	2	3	3	1
45	1000	200	199	198	196	195	194	193	192	191	190	189	188	187	186	185	184	183	182	181	180	178	177	176	175	173	172	170	169	168	167	165	164	163	162	161	160	159	158	157	156	155	154	153	151	150	3	2	3	2	2	2	4	1	2	2	3	1	2	1	3	1	2	2	1	2	2	1	4	3	2	1	2	2	1	2	2	4	2	2	1	1	2	3	1	2	4	3	7	3	2
42	1000	200	198	196	194	193	192	191	190	189	188	187	186	185	184	182	181	180	179	178	177	176	174	173	172	171	170	169	168	166	165	164	163	162	160	158	157	156	154	153	152	151	150	2	2	4	5	3	1	4	3	2	2	1	3	1	2	1	6	3	2	3	1	1	2	2	2	2	1	4	2	2	4	1	2	2	4	3	1	1	3	1	3	3	3
43	1000	199	198	197	196	195	194	193	192	191	190	189	188	187	186	185	183	182	181	179	178	177	176	175	174	173	171	170	169	166	165	164	163	162	161	160	159	158	156	155	154	153	152	150	5	4	2	1	1	3	4	1	5	2	2	3	2	4	2	2	2	1	1	2	1	1	3	1	5	1	2	1	4	2	1	1	1	3	1	1	5	3	3	4	2	2	3
45	1000	200	199	198	197	196	195	194	193	192	191	190	189	188	187	186	185	184	183	182	180	179	178	175	174	173	172	171	170	169	168	167	166	165	163	162	161	159	158	157	156	155	154	153	151	150	4	1	1	3	2	2	3	3	2	2	2	2	1	2	3	1	1	3	3	3	4	1	2	1	1	1	1	2	3	7	1	4	1	2	4	1	1	3	2	1	5	1	3	1	3
45	1000	200	199	197	195	193	192	191	190	189	188	187	186	185	184	183	182	181	180	179	178	177	176	174	173	172	171	170	169	168	166	165	164	163	162	161	160	159	158	157	156	155	154	153	152	151	1	2	3	1	2	3	2	2	2	3	2	1	3	4	4	3	2	3	3	1	4	2	1	1	1	2	4	2	1	2	3	1	2	1	1	1	2	3	3	4	3	2	4	2	1
45	1000	199	198	197	196	195	194	193	192	191	190	188	187	186	185	184	183	182	181	180	179	178	176	175	174	173	171	170	168	166	165	164	163	162	161	160	159	158	157	156	155	154	153	152	151	150	1	1	4	3	1	1	1	1	5	1	1	4	3	3	3	4	2	3	4	2	3	2	2	2	2	1	2	2	5	2	1	1	2	1	2	2	2	2	2	2	3	3	3	2	1
46	1000	200	199	198	196	195	194	193	192	190	189	188	187	185	184	183	182	181	180	179	178	177	176	175	174	173	172	171	170	169	166	165	164	163	162	161	160	159	158	157	156	155	154	153	152	151	150	2	1	4	1	2	3	2	2	1	2	2	2	1	1	3	2	3	3	4	2	2	5	4	2	2	2	2	1	1	1	1	2	2	5	2	1	1	1	1	2	3	2	5	3	2	2
44	1000	199	198	197	196	195	194	193	192	191	190	189	188	187	186	185	184	183	181	180	179	178	177	175	174	173	171	169	168	167	166	165	164	163	162	161	160	159	157	156	155	154	153	151	150	4	1	2	3	1	2	3	2	1	2	2	4	4	3	3	1	4	2	2	1	4	2	1	2	1	3	2	1	1	2	3	3	1	1	4	3	3	3	1	3	4	1	3	1
42	1000	200	197	196	195	194	193	192	190	189	188	187	186	185	184	183	182	181	180	179	178	177	175	174	173	172	170	167	166	165	164	163	162	161	159	158	157	156	155	154	153	151	150	3	5	3	1	1	1	1	2	1	1	3	3	3	1	2	3	4	1	4	3	2	4	1	2	1	3	4	3	4	3	1	1	4	1	1	4	1	2	2	3	4	3
43	1000	200	199	198	197	196	193	192	191	190	189	188	187	186	185	184	183	182	180	179	178	177	176	175	173	172	171	170	169	168	167	166	165	164	163	162	160	159	157	156	155	153	151	150	2	5	1	4	4	2	3	2	2	3	1	1	2	2	3	1	3	2	4	1	3	1	2	1	1	2	2	7	1	1	2	2	1	1	4	2	3	1	5	1	2	2	5
48	1000	200	199	198	197	195	194	193	192	191	190	189	188	187	186	185	184	183	182	181	180	179	177	176	175	174	173	171	170	169	168	167	166	165	164	163	162	161	160	159	158	157	156	155	154	153	152	151	150	3	4	2	3	2	1	2	2	1	4	3	1	3	2	2	2	4	2	2	1	2	3	1	3	2	3	2	1	1	2	2	2	1	3	3	1	2	1	3	1	3	2	1	1	1	3	2	2
42	1000	200	199	198	197	195	194	193	192	191	190	189	187	186	185	181	180	178	177	175	172	171	170	169	168	167	166	165	164	163	162	161	160	159	158	157	156	155	154	153	152	151	150	1	3	3	1	2	2	2	1	4	1	2	1	2	4	4	1	4	1	2	1	1	1	4	3	2	8	1	3	5	2	2	4	1	1	5	1	3	4	1	2	2	2
46	1000	199	198	197	196	195	194	193	192	191	189	188	187	185	183	182	181	180	179	178	177	176	175	174	173	172	170	169	168	167	166	165	164	163	162	161	160	159	158	157	156	155	154	153	152	151	150	1	3	1	5	1	2	3	3	3	1	2	2	3	2	3	4	3	2	2	1	1	2	1	1	1	2	1	1	1	4	1	1	2	4	2	6	4	1	2	4	2	2	2	2	1	2
41	1000	199	198	197	196	194	193	192	191	190	189	187	186	184	183	182	181	180	179	178	177	175	174	173	172	171	170	168	166	165	164	163	162	161	160	159	157	155	154	153	152	150	2	1	3	3	1	1	4	2	4	1	3	3	1	6	3	3	3	4	2	3	2	2	4	3	3	2	4	1	1	1	2	2	1	1	1	3	2	3	4	1	4
42	1000	199	198	196	195	194	193	192	191	190	189	188	187	186	184	183	180	179	178	177	176	175	174	173	172	171	170	168	167	166	165	164	162	161	160	159	158	156	154	153	152	151	150	4	2	2	1	5	3	2	3	2	2	2	1	2	2	3	1	3	2	3	1	3	1	1	3	2	5	2	7	2	1	2	2	1	1	2	1	5	3	2	2	1	5
44	1000	200	199	196	195	194	193	192	191	190	188	186	185	183	182	181	180	179	178	177	176	175	174	173	172	170	169	168	167	166	165	164	163	161	160	159	158	157	156	155	154	153	152	151	150	2	3	2	1	2	2	4	3	1	2	1	1	3	1	1	1	4	1	2	3	2	3	1	4	2	4	4	2	3	3	6	3	3	1	1	2	2	2	2	1	3	2	2	2
45	1000	200	199	198	197	196	195	193	192	191	190	189	187	186	185	184	183	182	181	180	178	177	176	175	174	173	172	169	168	167	166	165	164	163	162	161	160	159	158	157	156	155	154	153	152	151	2	1	1	2	1	3	2	1	2	2	2	2	2	3	2	2	3	1	2	1	3	2	4	4	3	1	4	1	5	2	4	2	2	2	3	1	2	3	2	1	3	1	3	2	3
44	1000	200	199	198	197	196	194	193	191	190	189	188	185	184	183	182	181	180	179	178	177	176	175	173	172	171	170	169	168	167	166	165	163	162	161	160	159	158	157	156	155	154	153	152	150	1	3	1	1	2	4	3	1	2	3	2	2	1	2	3	1	2	3	1	1	3	5	3	1	2	3	5	2	1	5	1	1	3	1	4	3	3	2	4	1	2	1	3	2
42	1000	200	198	197	195	194	193	192	190	189	188	187	186	185	184	183	182	181	180	179	178	176	175	174	173	172	171	170	169	168	167	166	163	162	161	160	159	157	156	155	153	152	150	3	4	2	1	2	1	2	4	3	4	2	2	1	2	2	3	2	2	2	2	1	1	1	2	2	3	5	1	3	2	2	5	1	3	3	1	7	1	2	1	3	4
44	1000	199	198	197	196	195	194	193	192	191	190	189	188	187	185	184	183	182	181	180	179	178	177	176	175	174	173	172	171	169	168	167	166	165	164	163	161	160	157	156	154	153	152	151	150	1	1	3	4	2	2	3	2	3	3	1	2	1	2	3	1	1	3	1	1	4	3	4	3	2	1	1	6	1	2	1	1	3	3	2	2	2	4	4	1	3	1	2	4
46	1000	200	199	198	197	196	195	194	193	192	191	190	189	188	187	186	185	184	182	181	180	179	178	177	176	175	174	173	172	171	170	169	168	167	166	165	163	161	160	159	157	155	154	153	152	151	150	4	1	3	2	3	2	1	3	4	3	2	2	5	1	1	1	1	3	1	1	1	1	2	1	2	3	1	1	2	1	1	2	1	5	4	1	3	5	1	1	2	1	4	4	3	3
44	1000	200	199	198	197	196	195	194	193	191	190	189	188	185	184	182	181	180	179	178	177	176	175	174	173	172	171	169	168	167	166	165	164	163	162	161	160	159	158	157	155	154	152	151	150	3	2	1	1	2	2	2	3	2	1	2	5	3	1	2	2	4	2	1	2	4	2	1	3	2	3	1	1	2	3	2	2	5	3	1	2	3	2	6	1	3	1	3	1
48	1000	200	199	198	196	195	194	193	192	191	190	189	188	187	186	185	184	183	182	181	180	179	178	177	176	175	174	173	172	171	169	167	166	165	164	163	162	161	160	159	158	157	156	155	154	153	152	151	150	2	2	1	3	3	1	2	1	5	1	4	1	1	1	2	3	1	1	2	2	2	2	2	3	1	3	3	7	1	1	7	1	1	1	3	2	1	1	1	1	2	6	1	2	1	3	1	1
42	1000	200	197	196	195	194	193	192	191	190	189	188	186	185	183	182	181	179	178	177	176	175	174	173	172	170	168	167	166	165	164	163	162	161	160	159	158	157	156	155	154	153	152	1	2	1	4	1	3	2	1	2	2	1	1	3	2	2	3	2	1	1	2	1	5	2	4	3	1	3	2	2	5	5	1	1	3	2	5	4	2	2	4	4	2
44	1000	200	199	198	197	196	195	194	193	192	191	190	188	187	186	185	184	183	182	181	180	175	174	173	172	171	169	168	167	166	165	164	163	162	161	159	158	157	156	155	154	153	152	151	150	3	3	3	1	1	2	1	5	3	1	5	1	1	4	4	2	1	2	1	3	4	2	4	3	1	1	4	1	3	1	1	4	1	1	4	2	4	2	1	2	1	2	2	2
42	1000	200	199	198	197	196	195	194	193	191	190	189	188	187	186	183	182	181	178	177	176	175	174	173	171	169	167	166	165	164	163	162	160	159	158	157	156	155	154	153	152	151	150	2	5	3	1	3	4	1	2	1	2	2	5	1	2	2	2	2	4	3	1	3	2	1	2	1	1	1	3	1	3	4	3	4	3	4	1	5	4	2	1	1	2
41	1000	200	199	198	197	194	193	192	191	189	188	187	186	185	184	183	182	181	180	176	175	174	173	172	171	168	167	166	165	164	163	162	161	160	159	158	157	156	153	152	151	150	4	2	2	5	2	3	1	2	3	2	1	2	1	6	2	1	3	3	2	1	2	2	3	1	2	2	4	2	1	5	1	3	4	5	2	2	2	2	4	1	2
45	1000	200	199	197	196	195	194	193	192	191	190	189	188	187	186	185	183	182	180	178	176	174	173	172	171	170	169	168	167	166	165	164	163	162	161	160	159	158	157	156	155	154	153	152	151	150	2	2	1	2	2	2	4	3	3	1	1	4	3	2	3	2	1	2	1	1	2	5	1	3	2	2	4	2	3	1	2	4	1	2	3	2	2	2	1	1	3	4	2	2	2
43	1000	200	199	198	197	196	195	194	193	189	188	187	185	184	183	182	181	180	179	178	177	176	175	173	171	169	168	167	166	165	164	163	162	161	160	159	158	157	156	155	154	153	152	150	3	3	4	3	1	1	4	3	1	2	2	3	1	3	1	2	4	2	1	1	1	1	1	1	7	1	1	1	5	1	3	6	6	1	4	4	2	1	2	2	2	1	1
45	1000	200	199	198	197	196	195	194	192	191	190	188	187	186	185	184	183	181	180	179	178	177	176	175	174	173	172	171	170	168	167	166	165	164	163	162	159	158	157	156	155	154	153	152	151	150	3	1	1	3	3	1	2	1	4	4	1	1	1	2	3	1	3	1	1	3	2	5	2	1	2	1	1	2	2	2	5	4	4	3	3	2	2	2	2	1	3	2	2	3	2
43	1000	200	199	198	197	196	195	194	193	192	191	190	189	188	187	186	185	184	183	182	178	177	176	175	174	173	172	170	169	167	166	165	164	163	162	161	159	157	156	155	154	153	152	151	1	3	2	2	6	1	1	4	1	2	1	6	3	1	2	3	1	1	1	1	2	1	3	4	3	3	3	3	3	2	3	4	2	4	3	2	1	1	1	2	1	3	3
48	1000	199	198	197	196	195	194	193	192	191	190	189	188	187	185	184	183	182	180	179	178	177	176	175	174	173	172	171	170	169	168	167	166	165	164	163	162	161	160	159	158	157	156	155	154	153	152	151	150	2	3	1	1	1	3	1	2	2	2	3	1	1	2	2	1	1	3	1	3	1	2	2	1	2	1	2	1	6	1	2	1	2	4	1	3	5	1	2	2	2	3	1	2	5	2	1	6
41	1000	199	198	196	194	193	192	191	190	189	188	187	186	185	183	182	181	180	179	177	175	174	173	171	170	169	168	167	166	165	164	163	161	160	159	158	157	155	154	152	151	150	1	3	1	2	1	2	4	1	3	4	6	3	5	4	2	1	1	2	1	1	4	4	1	3	2	1	1	2	3	2	1	1	5	6	2	1	2	2	3	3	3
44	1000	198	197	196	195	194	192	191	190	188	187	186	185	184	183	182	181	180	179	178	177	176	175	174	173	172	171	170	169	167	166	165	164	163	162	161	160	159	158	157	155	154	153	152	150	2	4	1	3	1	3	2	3	2	4	1	2	2	1	1	3	3	2	3	5	2	3	1	4	1	1	1	2	2	3	5	5	1	1	2	1	3	2	3	1	3	2	1	2
42	1000	199	198	197	195	194	192	191	190	189	188	187	186	185	184	183	182	181	180	179	178	176	175	174	173	171	170	168	167	166	165	163	162	161	160	159	158	157	156	154	152	151	150	2	2	3	1	5	2	1	1	2	1	1	2	2	2	1	3	1	6	1	3	1	2	1	3	2	4	3	4	1	4	3	5	2	2	1	1	3	4	2	3	2	5
42	1000	200	198	197	196	194	193	192	191	190	189	187	186	185	184	183	181	180	179	178	176	175	174	173	172	170	168	167	166	165	164	163	162	161	160	157	156	155	154	153	152	151	150	2	1	2	5	2	3	2	3	4	1	2	1	3	3	2	1	2	1	4	2	3	1	5	2	2	3	1	3	3	5	1	4	2	1	1	2	4	2	1	2	3	3
45	1000	200	198	197	196	195	194	193	192	191	190	189	188	187	186	185	184	183	182	180	179	178	177	176	175	174	173	172	171	170	169	168	166	165	164	162	161	160	159	158	157	156	155	154	151	150	3	3	1	2	2	2	1	2	4	1	1	1	2	2	4	1	3	2	4	1	2	1	2	2	1	3	4	1	3	1	1	1	3	2	4	2	5	2	1	2	2	2	1	4	6
40	1000	200	199	198	197	196	193	192	191	190	189	187	186	183	182	180	179	178	177	176	175	174	173	172	170	169	167	166	164	162	161	160	159	158	157	156	155	154	153	152	151	2	1	1	2	2	1	2	2	2	2	3	4	4	3	2	2	4	1	6	3	3	4	2	3	2	2	3	3	2	2	3	1	1	2	5	2	3	5	1	2
42	1000	200	199	197	196	195	194	192	191	190	189	188	187	186	185	184	182	180	179	177	176	175	174	173	171	170	169	168	167	164	163	162	161	160	159	158	157	156	155	154	152	151	150	1	1	2	3	1	2	4	5	1	1	4	2	1	3	2	1	1	2	3	5	6	5	2	3	2	1	3	1	2	1	1	1	1	2	2	1	3	4	4	3	4	3
45	1000	200	199	198	197	196	195	193	192	191	190	189	188	187	186	185	184	183	182	181	180	179	178	177	176	175	174	173	172	171	169	168	167	166	165	164	163	161	160	159	157	155	154	152	151	150	5	1	2	1	1	2	1	1	2	1	2	3	2	6	1	2	3	1	1	2	1	1	4	3	1	3	3	1	1	1	3	1	6	2	5	1	3	5	2	1	3	2	4	1	2
47	1000	200	199	198	197	196	195	194	193	191	189	188	187	186	185	184	183	182	181	180	179	176	175	174	173	172	171	170	169	168	167	166	165	164	163	162	161	160	159	158	157	156	155	154	153	152	151	150	3	3	3	1	6	1	1	3	1	2	2	1	4	1	3	5	3	1	3	1	1	2	1	2	1	2	2	1	1	2	3	2	4	2	4	1	3	3	1	1	2	1	2	1	2	4	1
46	1000	200	199	198	197	196	195	194	193	192	191	190	189	187	186	185	184	183	182	181	180	179	176	175	173	172	171	169	168	167	166	165	164	163	162	161	160	159	158	157	156	155	154	153	152	151	150	1	1	4	3	2	1	2	4	2	3	1	2	4	1	1	3	1	1	2	5	3	2	1	3	4	2	1	2	1	2	1	5	2	1	3	3	1	1	3	1	6	1	1	2	3	1
46	1000	200	199	198	197	196	194	193	192	191	190	189	188	187	186	185	184	182	181	179	178	177	176	174	173	172	171	170	168	167	166	165	164	163	162	161	160	159	158	157	156	155	154	153	152	151	150	5	2	3	3	2	1	1	2	2	1	7	1	3	2	1	1	2	1	2	2	2	2	5	1	2	1	4	2	3	3	4	3	4	2	2	4	1	1	1	1	1	1	2	1	2	1
43	1000	200	199	198	197	196	194	192	191	190	189	188	186	185	184	183	182	181	179	178	177	173	171	170	169	168	167	166	165	164	163	162	161	160	159	158	157	156	155	154	153	152	151	150	2	3	1	3	2	1	3	3	3	2	3	2	2	2	2	4	3	4	1	2	3	4	1	2	4	2	1	2	3	3	3	6	1	1	2	2	1	3	1	2	2	1	2
42	1000	200	198	197	196	195	194	193	192	191	190	189	188	187	186	185	184	183	182	181	179	178	177	175	173	172	171	170	169	168	167	166	165	163	161	158	157	155	154	153	152	151	150	2	3	2	4	3	1	1	2	2	1	1	5	1	2	2	1	3	2	3	2	3	3	1	4	3	2	2	4	1	1	2	3	3	4	2	2	1	3	2	3	2	6
44	1000	200	199	197	196	195	194	193	191	190	189	188	187	186	185	184	183	182	181	180	179	177	176	175	174	173	172	171	170	169	168	167	166	165	164	163	162	161	158	155	154	153	152	151	150	1	3	2	6	1	2	1	2	3	1	2	2	1	3	5	2	2	2	2	1	1	4	2	1	2	3	4	2	5	2	2	2	4	1	3	1	3	1	1	3	3	2	3	1
46	1000	200	199	198	196	195	194	193	191	190	189	188	187	186	185	184	183	182	181	180	179	178	177	176	174	173	172	171	170	169	168	167	166	165	164	163	162	161	160	159	158	157	154	153	152	151	150	2	8	3	1	1	2	2	2	1	1	1	3	1	3	1	2	1	1	4	4	2	3	3	2	2	4	2	1	2	2	1	2	4	1	1	4	4	3	3	2	1	2	2	1	1	1
42	1000	199	198	197	196	195	194	193	192	191	190	189	188	186	185	184	183	181	180	178	177	176	175	174	173	170	169	168	167	166	165	164	163	162	160	159	158	157	156	155	153	152	151	5	1	2	1	2	4	4	3	3	1	1	2	3	2	1	2	2	3	3	2	5	4	1	1	1	3	4	3	1	3	1	2	2	2	3	4	3	1	1	4	1	3
46	1000	200	199	198	197	196	195	194	193	192	191	190	189	188	186	185	183	181	180	179	178	177	176	175	174	173	172	170	169	168	167	166	164	163	162	161	160	159	158	157	156	155	154	153	152	151	150	3	4	3	1	4	4	1	2	2	3	2	1	2	2	2	2	2	2	3	1	3	2	1	3	1	2	2	2	4	3	3	1	1	2	2	1	4	2	2	1	2	1	2	4	1	2
42	1000	200	199	198	197	196	195	193	192	191	190	189	188	187	186	185	183	182	181	180	175	174	173	172	171	169	168	167	165	164	163	162	161	160	159	157	156	155	154	153	152	151	150	1	2	1	2	3	2	4	1	1	3	1	4	4	2	4	2	4	1	2	2	2	2	4	1	6	5	2	1	2	2	1	4	1	3	3	1	2	2	6	1	1	2
41	1000	200	199	198	196	195	194	191	190	189	188	187	186	185	184	183	182	181	180	179	178	176	175	174	173	172	171	170	169	168	166	164	161	159	158	157	156	155	154	153	152	151	1	2	4	3	3	2	2	2	1	1	1	2	1	1	2	5	6	4	3	2	1	2	5	6	4	4	1	1	1	1	2	3	2	2	1	4	1	4	1	1	5
44	1000	200	199	198	196	195	194	193	192	190	189	188	185	184	183	182	181	180	179	178	177	176	175	174	172	171	169	168	167	166	165	164	163	162	161	160	159	158	157	156	155	153	152	151	150	2	4	3	2	1	1	6	3	1	3	1	3	4	3	1	2	3	1	3	3	5	2	1	1	3	1	2	3	2	3	3	2	3	1	2	1	3	2	1	4	1	1	2	1
45	1000	200	199	198	197	196	195	194	193	190	189	188	187	186	185	184	183	182	181	180	179	178	177	176	175	174	171	170	169	168	166	165	163	162	161	160	159	158	157	156	155	154	153	152	151	150	2	1	3	2	3	1	1	3	2	1	4	4	2	2	2	4	2	4	2	2	2	3	1	2	1	1	4	2	1	1	2	4	2	2	2	1	1	4	3	1	3	3	4	1	2
46	1000	200	199	196	195	194	193	191	190	189	188	187	186	185	184	183	182	181	180	179	178	177	176	175	174	171	170	169	168	167	166	165	164	163	162	161	160	159	158	157	156	155	154	153	152	151	150	2	2	1	1	1	3	1	1	2	1	6	1	2	3	2	1	2	1	2	5	2	1	2	3	1	2	3	1	3	1	1	5	2	1	2	2	7	1	4	1	2	2	1	3	3	4
39	1000	200	198	197	196	195	194	193	192	191	190	188	186	184	183	182	181	180	179	178	177	176	175	173	172	171	170	168	166	164	161	160	159	158	157	155	154	153	152	151	2	3	6	5	3	4	3	1	2	5	1	5	1	2	2	3	1	3	1	1	3	3	2	1	2	1	1	2	3	4	2	3	2	4	2	2	4	2	3
45	1000	200	198	196	195	193	192	191	190	188	187	186	185	184	183	182	181	180	179	178	177	176	175	174	173	171	170	169	168	167	166	165	164	163	162	161	159	158	157	156	155	154	153	152	151	150	1	1	3	3	5	4	1	3	1	5	3	3	3	1	2	3	1	2	2	1	2	2	3	1	3	2	3	1	1	1	2	4	1	1	3	2	3	2	3	2	2	2	1	2	3
41	1000	199	196	195	194	193	192	191	190	189	188	186	185	183	180	179	178	177	175	174	172	171	170	169	168	167	166	165	164	163	162	161	160	159	158	157	156	155	154	153	151	150	2	2	3	3	1	4	3	2	1	1	1	2	3	5	4	2	1	2	1	3	3	2	2	1	1	4	6	3	1	3	4	1	4	2	4	2	3	2	1	3	2
42	1000	199	198	197	196	195	194	193	192	191	190	189	188	186	185	184	183	182	180	177	176	175	172	171	170	169	168	167	166	165	164	163	162	161	160	159	157	156	155	153	152	151	150	2	1	2	7	3	5	1	4	1	1	2	4	1	1	3	3	2	3	6	2	1	2	1	2	4	3	1	2	1	3	1	2	1	7	3	2	2	3	2	1	1	1
41	1000	200	199	198	197	196	195	194	192	191	188	187	186	185	184	183	182	181	180	179	178	175	174	173	172	171	170	169	168	167	166	165	162	160	159	158	157	156	154	153	151	150	1	1	5	2	3	1	1	2	4	2	6	4	1	2	3	3	3	1	1	1	2	3	1	1	2	3	2	2	4	5	1	1	3	1	4	3	2	1	1	6	5
45	1000	200	199	198	197	196	195	194	192	191	190	189	188	187	186	185	184	183	182	181	180	179	178	177	176	174	173	172	171	170	166	165	164	163	162	161	160	159	158	157	156	155	153	152	151	150	4	3	1	2	1	1	1	2	3	3	6	1	1	2	1	5	3	1	5	2	2	2	2	2	3	2	2	2	2	2	2	2	2	3	3	4	1	2	1	1	1	2	2	2	3
46	1000	199	197	196	195	194	193	192	191	190	189	188	187	186	185	183	182	181	180	178	177	176	175	174	173	172	171	170	169	168	167	166	165	164	163	161	160	159	158	157	156	155	154	153	152	151	150	3	4	4	1	1	3	1	2	3	2	3	1	2	3	2	1	3	1	2	2	4	1	4	1	1	1	1	2	1	4	3	1	1	3	3	3	1	4	1	3	4	2	1	2	2	2
44	1000	200	199	198	197	196	195	194	193	192	191	190	189	188	186	185	184	183	182	180	179	178	177	176	175	174	172	171	170	169	166	165	164	163	162	161	160	159	158	157	155	154	152	151	150	3	1	3	1	3	1	4	1	2	2	4	6	2	2	1	1	2	2	1	4	1	5	1	1	4	2	1	3	2	5	1	3	2	1	1	3	4	2	2	1	3	3	2	1
45	1000	200	199	198	197	196	195	194	192	191	190	189	188	187	186	185	184	183	182	181	180	179	178	177	176	175	174	172	171	170	169	168	165	164	163	162	161	160	157	156	155	154	153	152	151	150	1	2	2	5	3	1	2	3	1	1	3	2	1	2	3	1	3	1	1	2	3	3	2	1	1	2	2	2	3	2	3	1	1	1	3	4	3	4	4	5	2	2	1	3	2
44	1000	200	199	197	196	195	194	193	192	191	190	189	188	187	185	184	182	181	180	179	178	177	176	175	173	172	171	170	169	168	167	166	165	164	163	162	161	159	157	156	154	153	152	151	150	2	3	1	3	1	1	3	2	1	4	1	1	1	2	2	2	1	4	2	5	2	1	1	1	4	4	5	4	1	3	1	4	2	3	3	1	1	2	3	1	2	4	3	2
41	1000	199	198	197	196	195	192	191	190	189	188	187	185	183	182	181	180	179	178	177	176	175	174	172	171	170	169	168	167	166	165	164	163	162	160	159	158	157	156	155	153	151	3	1	1	5	3	2	1	5	1	1	2	3	2	2	2	2	3	1	2	3	4	2	3	4	3	3	1	1	4	2	5	3	2	1	2	2	2	4	3	2	2
42	1000	200	199	198	196	195	194	193	192	191	189	188	187	185	184	182	181	180	179	176	175	174	173	172	171	170	169	168	167	166	165	164	163	162	161	160	157	156	154	153	152	151	150	1	1	2	3	1	2	5	4	2	2	1	2	2	4	3	3	5	2	1	2	2	1	2	2	3	5	3	1	1	1	1	1	5	2	2	1	4	3	3	5	3	1
44	1000	200	199	198	197	195	194	193	192	191	190	189	188	187	186	185	183	180	179	178	177	176	175	174	173	172	171	170	169	167	166	164	163	162	161	160	159	158	157	156	155	154	153	152	151	3	1	2	4	1	1	3	1	1	3	2	6	2	1	1	2	1	1	3	3	2	1	2	2	2	2	4	1	3	3	5	3	3	1	4	1	1	3	2	2	5	4	1	1
47	1000	200	199	198	197	196	195	194	193	192	191	190	189	188	187	186	184	183	182	181	180	179	178	177	176	173	172	171	170	168	167	166	165	164	163	162	161	160	159	158	157	156	155	154	153	152	151	150	1	4	2	1	3	2	1	2	3	3	1	2	1	1	1	4	2	2	3	4	2	3	3	1	1	1	3	1	4	4	2	1	3	1	4	2	5	5	1	1	1	1	1	1	1	1	3
45	1000	200	199	198	197	196	195	193	192	191	189	188	187	186	185	184	183	182	181	180	179	178	177	175	174	172	171	170	169	168	167	166	165	164	163	162	161	160	159	156	155	154	153	152	151	150	2	2	2	1	1	1	2	2	1	1	2	2	1	5	1	1	1	4	6	1	4	5	1	2	1	1	1	2	3	2	5	2	1	6	3	1	1	5	4	2	1	1	2	1	4
47	1000	200	198	197	196	195	194	193	192	191	190	189	188	187	186	185	184	183	182	181	180	179	178	177	176	175	174	173	172	171	169	168	167	166	164	163	162	161	159	158	157	156	155	154	153	152	151	150	1	2	1	2	4	2	2	3	1	1	1	2	5	1	4	1	1	4	3	1	2	4	1	2	3	1	3	1	3	4	1	3	2	2	2	2	1	2	3	1	1	2	1	4	3	1	3
44	1000	199	198	197	196	195	194	193	190	189	188	187	185	184	183	182	181	180	179	177	176	175	174	173	172	171	170	169	168	167	166	165	164	163	162	160	159	158	156	155	154	153	152	151	150	3	1	3	3	2	1	1	6	2	4	5	1	2	2	1	4	2	1	3	1	2	1	5	2	2	2	1	1	3	4	1	1	3	2	3	2	1	1	4	1	2	1	6	1
42	1000	199	197	196	195	194	193	192	191	190	189	188	187	186	184	181	180	178	177	176	175	174	173	172	171	169	168	167	166	165	164	163	162	161	160	159	157	156	154	153	152	151	150	2	3	5	1	4	1	1	2	2	2	2	1	2	2	3	4	2	2	2	3	3	2	2	4	4	1	2	2	1	4	1	5	2	4	2	3	3	2	1	3	1	2
44	1000	200	199	198	197	196	195	194	193	192	191	190	189	188	187	186	185	184	183	182	180	178	177	176	175	174	173	172	169	168	167	166	165	164	163	162	161	159	158	156	155	154	153	152	150	4	2	2	1	3	2	2	1	3	1	1	2	4	2	2	2	1	8	1	2	1	1	1	1	2	1	4	2	1	4	3	2	4	1	1	3	1	5	3	3	4	1	4	1
43	1000	200	199	198	197	196	195	192	191	190	189	188	187	186	185	183	182	181	180	179	178	175	174	172	170	169	168	167	166	165	164	163	162	161	159	158	157	156	155	154	153	152	151	150	1	3	2	2	2	1	1	2	2	2	2	2	4	1	2	1	1	4	2	3	6	3	3	4	1	2	3	5	2	1	3	2	3	3	1	2	2	1	4	1	5	2	1
45	1000	199	198	197	196	195	194	193	192	191	190	189	188	187	186	185	184	183	182	181	180	179	178	176	175	174	172	171	169	168	166	165	164	163	162	161	160	159	157	156	155	154	153	152	151	150	2	3	3	1	2	2	3	2	2	2	2	1	3	2	2	2	1	2	2	2	3	1	2	1	1	3	1	4	1	2	4	1	3	1	2	4	1	2	3	3	1	2	5	4	4
48	1000	200	198	197	196	195	194	193	192	191	190	189	188	187	186	185	184	183	182	181	180	179	178	177	176	175	174	173	172	171	170	169	168	167	166	165	164	163	161	160	159	158	157	155	154	153	152	151	150	1	2	3	1	2	2	4	1	1	2	1	3	3	1	1	1	3	2	1	2	1	2	1	2	1	1	3	1	1	4	2	2	2	1	3	5	4	3	2	2	1	2	3	2	4	5	2	1
43	1000	200	198	197	196	194	193	192	191	190	189	188	187	186	185	184	183	182	181	179	178	177	176	175	173	171	169	167	166	165	163	162	161	160	159	158	157	156	155	154	153	152	151	150	1	2	2	1	2	5	1	2	1	1	1	2	3	2	1	2	1	2	3	1	5	2	3	5	2	2	4	2	3	3	3	4	4	2	1	4	3	3	3	1	2	1	2
